
  32    4
  10   10   10   10

   0   0   0   0   0  13 2 4 6 7 9 10 11 15 16 17 18 19 31 
   2   1   1   0   1   8 30 29 28 26 25 24 14 3 
   5   4   3   0   4   3 27 22 5 
   6   3   0   1   5   6 26 24 23 22 14 12 
   7   4   3   2   0   3 23 13 8 
   4   0   4   3   4   3 28 25 21 
   8   7   4   5   0   3 26 25 21 
   5   2   0   2   2   2 21 12 
  10   7   0   3   2   2 27 12 
   2   3   0   2   4   2 24 20 
   2   4   3   3   0   1 13 
   9   4   3   4   0   1 20 
   4   0   8   4   6   1 21 
   6   3   0   3   2   1 20 
   6   4   4   8   0   1 23 
   4   2   2   4   0   1 23 
   8   5   3   3   0   1 22 
   1   0   3   7   5   1 22 
   3   3   4   7   0   1 22 
   7   5   3   0   4   1 32
   6   7   0   7   3   1 32
   8   2   4   0   6   1 32
   6   0   3   3   6   1 32
   7   4   4   5   0   1 32
   9   6   6   4   0   1 32
   3   3   3   0   5   1 32
   2   0   2   5   4   1 32
   8   5   8   5   0   1 32
   1   6   6   2   0   1 32
   5   4   5   4   0   1 32
   6   2   7   0   5   1 32
   0   0   0   0   0   0 
